# Solvated 5-mer tube

units		real
atom_style	full

pair_style	lj/charmm/coul/charmm 8.0 10.0
bond_style      harmonic
angle_style     charmm
dihedral_style  charmm
improper_style  harmonic
kspace_style	none

read_data	dosTubos.data

neighbor	2.0 bin
neigh_modify	delay 5

timestep	0.05

thermo_style	multi
thermo		1000

group		water type 2 3
fix		1 all nvt temp 275.0 275.0 100.0 tchain 1

group		tube type 1

dump		1 all atom 10 tube.dump

dump		2 all image 10 image.*.jpg type type &
		axes yes 0.8 0.02 view 60 -30 bond atom 0.5
dump_modify	2 pad 3

#minimize 0.0 1.0e-8 1000 100000
run		3000


